db/inputs/22919204383193302312974613860965426115.smt2
(set-logic QF_FP)
(declare-const x0 (_ FloatingPoint 11 53))
(declare-const x1 (_ FloatingPoint 11 53))
(assert (fp.leq (fp.sub RNE (fp.div RNE (fp.add RNE (fp.div RNE x1 x0) (fp.mul RNE x1 x1)) (fp.sub RNE (fp.neg x1) (fp.neg x1))) (fp.sub RNE (fp.mul RNE (fp.sub RNE x1 x0) (fp.mul RNE x0 x0)) (fp.mul RNE (fp.add RNE x0 x1) (fp.neg x0)))) (fp.add RNE (fp.neg (fp.sub RNE (fp.div RNE x1 x0) (fp.div RNE x1 x0))) (fp.div RNE (fp.mul RNE (fp.div RNE x1 x1) (fp.mul RNE x1 x0)) (fp.add RNE (fp.div RNE x0 x1) (fp.mul RNE x0 x0))))))
(assert (fp.geq (fp.div RNE (fp.div RNE (fp.mul RNE (fp.sub RNE x0 x1) (fp.add RNE x0 x0)) (fp.sub RNE (fp.div RNE x1 x1) (fp.neg x0))) (fp.add RNE (fp.add RNE (fp.div RNE x0 x1) (fp.neg x1)) (fp.neg (fp.div RNE x0 x1)))) (fp.sub RNE (fp.div RNE (fp.mul RNE (fp.add RNE x1 x1) (fp.neg x0)) (fp.sub RNE (fp.add RNE x1 x1) (fp.add RNE x1 x1))) (fp.sub RNE (fp.sub RNE (fp.sub RNE x0 x1) (fp.div RNE x0 x1)) (fp.neg (fp.add RNE x1 x1))))))
(check-sat)
