db/data/22919204383193302312974613860965426115.z3.out
-------------------
2500.121102395
